p cnf 432 1430
1 2 3 4 5 0
-91 0
-1 92 0
-2 92 0
-1 -2 93 0
-3 94 0
-4 94 0
-3 -4 95 0
-5 96 0
-91 96 0
-5 -91 97 0
-94 98 0
-96 98 0
-94 -96 99 0
-95 100 0
-97 100 0
-95 -97 101 0
-99 102 0
-100 102 0
-99 -100 103 0
-92 104 0
-98 104 0
-92 -98 105 0
-93 106 0
-102 106 0
-93 -102 107 0
-105 108 0
-106 108 0
-105 -106 109 0
-108 0
31 32 33 34 35 0
-110 0
-31 111 0
-32 111 0
-31 -32 112 0
-33 113 0
-34 113 0
-33 -34 114 0
-35 115 0
-110 115 0
-35 -110 116 0
-113 117 0
-115 117 0
-113 -115 118 0
-114 119 0
-116 119 0
-114 -116 120 0
-118 121 0
-119 121 0
-118 -119 122 0
-111 123 0
-117 123 0
-111 -117 124 0
-112 125 0
-121 125 0
-112 -121 126 0
-124 127 0
-125 127 0
-124 -125 128 0
-127 0
61 62 63 64 65 0
-129 0
-61 130 0
-62 130 0
-61 -62 131 0
-63 132 0
-64 132 0
-63 -64 133 0
-65 134 0
-129 134 0
-65 -129 135 0
-132 136 0
-134 136 0
-132 -134 137 0
-133 138 0
-135 138 0
-133 -135 139 0
-137 140 0
-138 140 0
-137 -138 141 0
-130 142 0
-136 142 0
-130 -136 143 0
-131 144 0
-140 144 0
-131 -140 145 0
-143 146 0
-144 146 0
-143 -144 147 0
-146 0
6 7 8 9 10 0
-148 0
-6 149 0
-7 149 0
-6 -7 150 0
-8 151 0
-9 151 0
-8 -9 152 0
-10 153 0
-148 153 0
-10 -148 154 0
-151 155 0
-153 155 0
-151 -153 156 0
-152 157 0
-154 157 0
-152 -154 158 0
-156 159 0
-157 159 0
-156 -157 160 0
-149 161 0
-155 161 0
-149 -155 162 0
-150 163 0
-159 163 0
-150 -159 164 0
-162 165 0
-163 165 0
-162 -163 166 0
-165 0
36 37 38 39 40 0
-167 0
-36 168 0
-37 168 0
-36 -37 169 0
-38 170 0
-39 170 0
-38 -39 171 0
-40 172 0
-167 172 0
-40 -167 173 0
-170 174 0
-172 174 0
-170 -172 175 0
-171 176 0
-173 176 0
-171 -173 177 0
-175 178 0
-176 178 0
-175 -176 179 0
-168 180 0
-174 180 0
-168 -174 181 0
-169 182 0
-178 182 0
-169 -178 183 0
-181 184 0
-182 184 0
-181 -182 185 0
-184 0
66 67 68 69 70 0
-186 0
-66 187 0
-67 187 0
-66 -67 188 0
-68 189 0
-69 189 0
-68 -69 190 0
-70 191 0
-186 191 0
-70 -186 192 0
-189 193 0
-191 193 0
-189 -191 194 0
-190 195 0
-192 195 0
-190 -192 196 0
-194 197 0
-195 197 0
-194 -195 198 0
-187 199 0
-193 199 0
-187 -193 200 0
-188 201 0
-197 201 0
-188 -197 202 0
-200 203 0
-201 203 0
-200 -201 204 0
-203 0
11 12 13 14 15 0
-205 0
-11 206 0
-12 206 0
-11 -12 207 0
-13 208 0
-14 208 0
-13 -14 209 0
-15 210 0
-205 210 0
-15 -205 211 0
-208 212 0
-210 212 0
-208 -210 213 0
-209 214 0
-211 214 0
-209 -211 215 0
-213 216 0
-214 216 0
-213 -214 217 0
-206 218 0
-212 218 0
-206 -212 219 0
-207 220 0
-216 220 0
-207 -216 221 0
-219 222 0
-220 222 0
-219 -220 223 0
-222 0
41 42 43 44 45 0
-224 0
-41 225 0
-42 225 0
-41 -42 226 0
-43 227 0
-44 227 0
-43 -44 228 0
-45 229 0
-224 229 0
-45 -224 230 0
-227 231 0
-229 231 0
-227 -229 232 0
-228 233 0
-230 233 0
-228 -230 234 0
-232 235 0
-233 235 0
-232 -233 236 0
-225 237 0
-231 237 0
-225 -231 238 0
-226 239 0
-235 239 0
-226 -235 240 0
-238 241 0
-239 241 0
-238 -239 242 0
-241 0
71 72 73 74 75 0
-243 0
-71 244 0
-72 244 0
-71 -72 245 0
-73 246 0
-74 246 0
-73 -74 247 0
-75 248 0
-243 248 0
-75 -243 249 0
-246 250 0
-248 250 0
-246 -248 251 0
-247 252 0
-249 252 0
-247 -249 253 0
-251 254 0
-252 254 0
-251 -252 255 0
-244 256 0
-250 256 0
-244 -250 257 0
-245 258 0
-254 258 0
-245 -254 259 0
-257 260 0
-258 260 0
-257 -258 261 0
-260 0
16 17 18 19 20 0
-262 0
-16 263 0
-17 263 0
-16 -17 264 0
-18 265 0
-19 265 0
-18 -19 266 0
-20 267 0
-262 267 0
-20 -262 268 0
-265 269 0
-267 269 0
-265 -267 270 0
-266 271 0
-268 271 0
-266 -268 272 0
-270 273 0
-271 273 0
-270 -271 274 0
-263 275 0
-269 275 0
-263 -269 276 0
-264 277 0
-273 277 0
-264 -273 278 0
-276 279 0
-277 279 0
-276 -277 280 0
-279 0
46 47 48 49 50 0
-281 0
-46 282 0
-47 282 0
-46 -47 283 0
-48 284 0
-49 284 0
-48 -49 285 0
-50 286 0
-281 286 0
-50 -281 287 0
-284 288 0
-286 288 0
-284 -286 289 0
-285 290 0
-287 290 0
-285 -287 291 0
-289 292 0
-290 292 0
-289 -290 293 0
-282 294 0
-288 294 0
-282 -288 295 0
-283 296 0
-292 296 0
-283 -292 297 0
-295 298 0
-296 298 0
-295 -296 299 0
-298 0
76 77 78 79 80 0
-300 0
-76 301 0
-77 301 0
-76 -77 302 0
-78 303 0
-79 303 0
-78 -79 304 0
-80 305 0
-300 305 0
-80 -300 306 0
-303 307 0
-305 307 0
-303 -305 308 0
-304 309 0
-306 309 0
-304 -306 310 0
-308 311 0
-309 311 0
-308 -309 312 0
-301 313 0
-307 313 0
-301 -307 314 0
-302 315 0
-311 315 0
-302 -311 316 0
-314 317 0
-315 317 0
-314 -315 318 0
-317 0
21 22 23 24 25 0
-319 0
-21 320 0
-22 320 0
-21 -22 321 0
-23 322 0
-24 322 0
-23 -24 323 0
-25 324 0
-319 324 0
-25 -319 325 0
-322 326 0
-324 326 0
-322 -324 327 0
-323 328 0
-325 328 0
-323 -325 329 0
-327 330 0
-328 330 0
-327 -328 331 0
-320 332 0
-326 332 0
-320 -326 333 0
-321 334 0
-330 334 0
-321 -330 335 0
-333 336 0
-334 336 0
-333 -334 337 0
-336 0
51 52 53 54 55 0
-338 0
-51 339 0
-52 339 0
-51 -52 340 0
-53 341 0
-54 341 0
-53 -54 342 0
-55 343 0
-338 343 0
-55 -338 344 0
-341 345 0
-343 345 0
-341 -343 346 0
-342 347 0
-344 347 0
-342 -344 348 0
-346 349 0
-347 349 0
-346 -347 350 0
-339 351 0
-345 351 0
-339 -345 352 0
-340 353 0
-349 353 0
-340 -349 354 0
-352 355 0
-353 355 0
-352 -353 356 0
-355 0
81 82 83 84 85 0
-357 0
-81 358 0
-82 358 0
-81 -82 359 0
-83 360 0
-84 360 0
-83 -84 361 0
-85 362 0
-357 362 0
-85 -357 363 0
-360 364 0
-362 364 0
-360 -362 365 0
-361 366 0
-363 366 0
-361 -363 367 0
-365 368 0
-366 368 0
-365 -366 369 0
-358 370 0
-364 370 0
-358 -364 371 0
-359 372 0
-368 372 0
-359 -368 373 0
-371 374 0
-372 374 0
-371 -372 375 0
-374 0
26 27 28 29 30 0
-376 0
-26 377 0
-27 377 0
-26 -27 378 0
-28 379 0
-29 379 0
-28 -29 380 0
-30 381 0
-376 381 0
-30 -376 382 0
-379 383 0
-381 383 0
-379 -381 384 0
-380 385 0
-382 385 0
-380 -382 386 0
-384 387 0
-385 387 0
-384 -385 388 0
-377 389 0
-383 389 0
-377 -383 390 0
-378 391 0
-387 391 0
-378 -387 392 0
-390 393 0
-391 393 0
-390 -391 394 0
-393 0
56 57 58 59 60 0
-395 0
-56 396 0
-57 396 0
-56 -57 397 0
-58 398 0
-59 398 0
-58 -59 399 0
-60 400 0
-395 400 0
-60 -395 401 0
-398 402 0
-400 402 0
-398 -400 403 0
-399 404 0
-401 404 0
-399 -401 405 0
-403 406 0
-404 406 0
-403 -404 407 0
-396 408 0
-402 408 0
-396 -402 409 0
-397 410 0
-406 410 0
-397 -406 411 0
-409 412 0
-410 412 0
-409 -410 413 0
-412 0
86 87 88 89 90 0
-414 0
-86 415 0
-87 415 0
-86 -87 416 0
-88 417 0
-89 417 0
-88 -89 418 0
-90 419 0
-414 419 0
-90 -414 420 0
-417 421 0
-419 421 0
-417 -419 422 0
-418 423 0
-420 423 0
-418 -420 424 0
-422 425 0
-423 425 0
-422 -423 426 0
-415 427 0
-421 427 0
-415 -421 428 0
-416 429 0
-425 429 0
-416 -425 430 0
-428 431 0
-429 431 0
-428 -429 432 0
-431 0
-1 -31 -61 7 0
-1 -32 -61 7 0
-1 -33 -61 7 0
-1 -34 -61 7 0
-1 -35 -61 7 0
-1 -31 -62 7 0
-1 -32 -62 7 0
-1 -33 -62 7 0
-1 -34 -62 7 0
-1 -35 -62 7 0
-1 -31 -63 7 0
-1 -32 -63 7 0
-1 -33 -63 7 0
-1 -34 -63 7 0
-1 -35 -63 7 0
-1 -31 -64 7 0
-1 -32 -64 7 0
-1 -33 -64 7 0
-1 -34 -64 7 0
-1 -35 -64 7 0
-1 -31 -65 7 0
-1 -32 -65 7 0
-1 -33 -65 7 0
-1 -34 -65 7 0
-1 -35 -65 7 0
-2 -31 -61 7 0
-2 -32 -61 7 0
-2 -33 -61 7 0
-2 -34 -61 7 0
-2 -35 -61 7 0
-2 -31 -62 7 0
-2 -32 -62 8 0
-2 -33 -62 8 0
-2 -34 -62 8 0
-2 -35 -62 8 0
-2 -31 -63 7 0
-2 -32 -63 8 0
-2 -33 -63 8 0
-2 -34 -63 8 0
-2 -35 -63 8 0
-2 -31 -64 7 0
-2 -32 -64 8 0
-2 -33 -64 8 0
-2 -34 -64 8 0
-2 -35 -64 8 0
-2 -31 -65 7 0
-2 -32 -65 8 0
-2 -33 -65 8 0
-2 -34 -65 8 0
-2 -35 -65 8 0
-3 -31 -61 7 0
-3 -32 -61 7 0
-3 -33 -61 7 0
-3 -34 -61 7 0
-3 -35 -61 7 0
-3 -31 -62 7 0
-3 -32 -62 8 0
-3 -33 -62 8 0
-3 -34 -62 8 0
-3 -35 -62 8 0
-3 -31 -63 7 0
-3 -32 -63 8 0
-3 -33 -63 9 0
-3 -34 -63 9 0
-3 -35 -63 9 0
-3 -31 -64 7 0
-3 -32 -64 8 0
-3 -33 -64 9 0
-3 -34 -64 9 0
-3 -35 -64 9 0
-3 -31 -65 7 0
-3 -32 -65 8 0
-3 -33 -65 9 0
-3 -34 -65 9 0
-3 -35 -65 9 0
-4 -31 -61 7 0
-4 -32 -61 7 0
-4 -33 -61 7 0
-4 -34 -61 7 0
-4 -35 -61 7 0
-4 -31 -62 7 0
-4 -32 -62 8 0
-4 -33 -62 8 0
-4 -34 -62 8 0
-4 -35 -62 8 0
-4 -31 -63 7 0
-4 -32 -63 8 0
-4 -33 -63 9 0
-4 -34 -63 9 0
-4 -35 -63 9 0
-4 -31 -64 7 0
-4 -32 -64 8 0
-4 -33 -64 9 0
-4 -34 -64 10 0
-4 -35 -64 10 0
-4 -31 -65 7 0
-4 -32 -65 8 0
-4 -33 -65 9 0
-4 -34 -65 10 0
-4 -35 -65 10 0
-5 -31 -61 7 0
-5 -32 -61 7 0
-5 -33 -61 7 0
-5 -34 -61 7 0
-5 -35 -61 7 0
-5 -31 -62 7 0
-5 -32 -62 8 0
-5 -33 -62 8 0
-5 -34 -62 8 0
-5 -35 -62 8 0
-5 -31 -63 7 0
-5 -32 -63 8 0
-5 -33 -63 9 0
-5 -34 -63 9 0
-5 -35 -63 9 0
-5 -31 -64 7 0
-5 -32 -64 8 0
-5 -33 -64 9 0
-5 -34 -64 10 0
-5 -35 -64 10 0
-5 -31 -65 7 0
-5 -32 -65 8 0
-5 -33 -65 9 0
-5 -34 -65 10 0
-5 -35 -65 6 0
-31 -1 37 0
-31 -2 37 0
-31 -3 37 0
-31 -4 37 0
-31 -5 37 0
-32 -1 37 0
-32 -2 38 0
-32 -3 38 0
-32 -4 38 0
-32 -5 38 0
-33 -1 37 0
-33 -2 38 0
-33 -3 39 0
-33 -4 39 0
-33 -5 39 0
-34 -1 37 0
-34 -2 38 0
-34 -3 39 0
-34 -4 40 0
-34 -5 40 0
-35 -1 37 0
-35 -2 38 0
-35 -3 39 0
-35 -4 40 0
-35 -5 36 0
-61 -1 67 0
-61 -2 67 0
-61 -3 67 0
-61 -4 67 0
-61 -5 67 0
-62 -1 67 0
-62 -2 68 0
-62 -3 68 0
-62 -4 68 0
-62 -5 68 0
-63 -1 67 0
-63 -2 68 0
-63 -3 69 0
-63 -4 69 0
-63 -5 69 0
-64 -1 67 0
-64 -2 68 0
-64 -3 69 0
-64 -4 70 0
-64 -5 70 0
-65 -1 67 0
-65 -2 68 0
-65 -3 69 0
-65 -4 70 0
-65 -5 66 0
-6 -36 -66 12 0
-6 -37 -66 12 0
-6 -38 -66 12 0
-6 -39 -66 12 0
-6 -40 -66 12 0
-6 -36 -67 12 0
-6 -37 -67 12 0
-6 -38 -67 12 0
-6 -39 -67 12 0
-6 -40 -67 12 0
-6 -36 -68 12 0
-6 -37 -68 12 0
-6 -38 -68 12 0
-6 -39 -68 12 0
-6 -40 -68 12 0
-6 -36 -69 12 0
-6 -37 -69 12 0
-6 -38 -69 12 0
-6 -39 -69 12 0
-6 -40 -69 12 0
-6 -36 -70 12 0
-6 -37 -70 12 0
-6 -38 -70 12 0
-6 -39 -70 12 0
-6 -40 -70 12 0
-7 -36 -66 12 0
-7 -37 -66 12 0
-7 -38 -66 12 0
-7 -39 -66 12 0
-7 -40 -66 12 0
-7 -36 -67 12 0
-7 -37 -67 13 0
-7 -38 -67 13 0
-7 -39 -67 13 0
-7 -40 -67 13 0
-7 -36 -68 12 0
-7 -37 -68 13 0
-7 -38 -68 13 0
-7 -39 -68 13 0
-7 -40 -68 13 0
-7 -36 -69 12 0
-7 -37 -69 13 0
-7 -38 -69 13 0
-7 -39 -69 13 0
-7 -40 -69 13 0
-7 -36 -70 12 0
-7 -37 -70 13 0
-7 -38 -70 13 0
-7 -39 -70 13 0
-7 -40 -70 13 0
-8 -36 -66 12 0
-8 -37 -66 12 0
-8 -38 -66 12 0
-8 -39 -66 12 0
-8 -40 -66 12 0
-8 -36 -67 12 0
-8 -37 -67 13 0
-8 -38 -67 13 0
-8 -39 -67 13 0
-8 -40 -67 13 0
-8 -36 -68 12 0
-8 -37 -68 13 0
-8 -38 -68 14 0
-8 -39 -68 14 0
-8 -40 -68 14 0
-8 -36 -69 12 0
-8 -37 -69 13 0
-8 -38 -69 14 0
-8 -39 -69 14 0
-8 -40 -69 14 0
-8 -36 -70 12 0
-8 -37 -70 13 0
-8 -38 -70 14 0
-8 -39 -70 14 0
-8 -40 -70 14 0
-9 -36 -66 12 0
-9 -37 -66 12 0
-9 -38 -66 12 0
-9 -39 -66 12 0
-9 -40 -66 12 0
-9 -36 -67 12 0
-9 -37 -67 13 0
-9 -38 -67 13 0
-9 -39 -67 13 0
-9 -40 -67 13 0
-9 -36 -68 12 0
-9 -37 -68 13 0
-9 -38 -68 14 0
-9 -39 -68 14 0
-9 -40 -68 14 0
-9 -36 -69 12 0
-9 -37 -69 13 0
-9 -38 -69 14 0
-9 -39 -69 15 0
-9 -40 -69 15 0
-9 -36 -70 12 0
-9 -37 -70 13 0
-9 -38 -70 14 0
-9 -39 -70 15 0
-9 -40 -70 15 0
-10 -36 -66 12 0
-10 -37 -66 12 0
-10 -38 -66 12 0
-10 -39 -66 12 0
-10 -40 -66 12 0
-10 -36 -67 12 0
-10 -37 -67 13 0
-10 -38 -67 13 0
-10 -39 -67 13 0
-10 -40 -67 13 0
-10 -36 -68 12 0
-10 -37 -68 13 0
-10 -38 -68 14 0
-10 -39 -68 14 0
-10 -40 -68 14 0
-10 -36 -69 12 0
-10 -37 -69 13 0
-10 -38 -69 14 0
-10 -39 -69 15 0
-10 -40 -69 15 0
-10 -36 -70 12 0
-10 -37 -70 13 0
-10 -38 -70 14 0
-10 -39 -70 15 0
-10 -40 -70 11 0
-36 -6 42 0
-36 -7 42 0
-36 -8 42 0
-36 -9 42 0
-36 -10 42 0
-37 -6 42 0
-37 -7 43 0
-37 -8 43 0
-37 -9 43 0
-37 -10 43 0
-38 -6 42 0
-38 -7 43 0
-38 -8 44 0
-38 -9 44 0
-38 -10 44 0
-39 -6 42 0
-39 -7 43 0
-39 -8 44 0
-39 -9 45 0
-39 -10 45 0
-40 -6 42 0
-40 -7 43 0
-40 -8 44 0
-40 -9 45 0
-40 -10 41 0
-66 -6 72 0
-66 -7 72 0
-66 -8 72 0
-66 -9 72 0
-66 -10 72 0
-67 -6 72 0
-67 -7 73 0
-67 -8 73 0
-67 -9 73 0
-67 -10 73 0
-68 -6 72 0
-68 -7 73 0
-68 -8 74 0
-68 -9 74 0
-68 -10 74 0
-69 -6 72 0
-69 -7 73 0
-69 -8 74 0
-69 -9 75 0
-69 -10 75 0
-70 -6 72 0
-70 -7 73 0
-70 -8 74 0
-70 -9 75 0
-70 -10 71 0
-11 -41 -71 17 0
-11 -42 -71 17 0
-11 -43 -71 17 0
-11 -44 -71 17 0
-11 -45 -71 17 0
-11 -41 -72 17 0
-11 -42 -72 17 0
-11 -43 -72 17 0
-11 -44 -72 17 0
-11 -45 -72 17 0
-11 -41 -73 17 0
-11 -42 -73 17 0
-11 -43 -73 17 0
-11 -44 -73 17 0
-11 -45 -73 17 0
-11 -41 -74 17 0
-11 -42 -74 17 0
-11 -43 -74 17 0
-11 -44 -74 17 0
-11 -45 -74 17 0
-11 -41 -75 17 0
-11 -42 -75 17 0
-11 -43 -75 17 0
-11 -44 -75 17 0
-11 -45 -75 17 0
-12 -41 -71 17 0
-12 -42 -71 17 0
-12 -43 -71 17 0
-12 -44 -71 17 0
-12 -45 -71 17 0
-12 -41 -72 17 0
-12 -42 -72 18 0
-12 -43 -72 18 0
-12 -44 -72 18 0
-12 -45 -72 18 0
-12 -41 -73 17 0
-12 -42 -73 18 0
-12 -43 -73 18 0
-12 -44 -73 18 0
-12 -45 -73 18 0
-12 -41 -74 17 0
-12 -42 -74 18 0
-12 -43 -74 18 0
-12 -44 -74 18 0
-12 -45 -74 18 0
-12 -41 -75 17 0
-12 -42 -75 18 0
-12 -43 -75 18 0
-12 -44 -75 18 0
-12 -45 -75 18 0
-13 -41 -71 17 0
-13 -42 -71 17 0
-13 -43 -71 17 0
-13 -44 -71 17 0
-13 -45 -71 17 0
-13 -41 -72 17 0
-13 -42 -72 18 0
-13 -43 -72 18 0
-13 -44 -72 18 0
-13 -45 -72 18 0
-13 -41 -73 17 0
-13 -42 -73 18 0
-13 -43 -73 19 0
-13 -44 -73 19 0
-13 -45 -73 19 0
-13 -41 -74 17 0
-13 -42 -74 18 0
-13 -43 -74 19 0
-13 -44 -74 19 0
-13 -45 -74 19 0
-13 -41 -75 17 0
-13 -42 -75 18 0
-13 -43 -75 19 0
-13 -44 -75 19 0
-13 -45 -75 19 0
-14 -41 -71 17 0
-14 -42 -71 17 0
-14 -43 -71 17 0
-14 -44 -71 17 0
-14 -45 -71 17 0
-14 -41 -72 17 0
-14 -42 -72 18 0
-14 -43 -72 18 0
-14 -44 -72 18 0
-14 -45 -72 18 0
-14 -41 -73 17 0
-14 -42 -73 18 0
-14 -43 -73 19 0
-14 -44 -73 19 0
-14 -45 -73 19 0
-14 -41 -74 17 0
-14 -42 -74 18 0
-14 -43 -74 19 0
-14 -44 -74 20 0
-14 -45 -74 20 0
-14 -41 -75 17 0
-14 -42 -75 18 0
-14 -43 -75 19 0
-14 -44 -75 20 0
-14 -45 -75 20 0
-15 -41 -71 17 0
-15 -42 -71 17 0
-15 -43 -71 17 0
-15 -44 -71 17 0
-15 -45 -71 17 0
-15 -41 -72 17 0
-15 -42 -72 18 0
-15 -43 -72 18 0
-15 -44 -72 18 0
-15 -45 -72 18 0
-15 -41 -73 17 0
-15 -42 -73 18 0
-15 -43 -73 19 0
-15 -44 -73 19 0
-15 -45 -73 19 0
-15 -41 -74 17 0
-15 -42 -74 18 0
-15 -43 -74 19 0
-15 -44 -74 20 0
-15 -45 -74 20 0
-15 -41 -75 17 0
-15 -42 -75 18 0
-15 -43 -75 19 0
-15 -44 -75 20 0
-15 -45 -75 16 0
-41 -11 47 0
-41 -12 47 0
-41 -13 47 0
-41 -14 47 0
-41 -15 47 0
-42 -11 47 0
-42 -12 48 0
-42 -13 48 0
-42 -14 48 0
-42 -15 48 0
-43 -11 47 0
-43 -12 48 0
-43 -13 49 0
-43 -14 49 0
-43 -15 49 0
-44 -11 47 0
-44 -12 48 0
-44 -13 49 0
-44 -14 50 0
-44 -15 50 0
-45 -11 47 0
-45 -12 48 0
-45 -13 49 0
-45 -14 50 0
-45 -15 46 0
-71 -11 77 0
-71 -12 77 0
-71 -13 77 0
-71 -14 77 0
-71 -15 77 0
-72 -11 77 0
-72 -12 78 0
-72 -13 78 0
-72 -14 78 0
-72 -15 78 0
-73 -11 77 0
-73 -12 78 0
-73 -13 79 0
-73 -14 79 0
-73 -15 79 0
-74 -11 77 0
-74 -12 78 0
-74 -13 79 0
-74 -14 80 0
-74 -15 80 0
-75 -11 77 0
-75 -12 78 0
-75 -13 79 0
-75 -14 80 0
-75 -15 76 0
-16 -46 -76 22 0
-16 -47 -76 22 0
-16 -48 -76 22 0
-16 -49 -76 22 0
-16 -50 -76 22 0
-16 -46 -77 22 0
-16 -47 -77 22 0
-16 -48 -77 22 0
-16 -49 -77 22 0
-16 -50 -77 22 0
-16 -46 -78 22 0
-16 -47 -78 22 0
-16 -48 -78 22 0
-16 -49 -78 22 0
-16 -50 -78 22 0
-16 -46 -79 22 0
-16 -47 -79 22 0
-16 -48 -79 22 0
-16 -49 -79 22 0
-16 -50 -79 22 0
-16 -46 -80 22 0
-16 -47 -80 22 0
-16 -48 -80 22 0
-16 -49 -80 22 0
-16 -50 -80 22 0
-17 -46 -76 22 0
-17 -47 -76 22 0
-17 -48 -76 22 0
-17 -49 -76 22 0
-17 -50 -76 22 0
-17 -46 -77 22 0
-17 -47 -77 23 0
-17 -48 -77 23 0
-17 -49 -77 23 0
-17 -50 -77 23 0
-17 -46 -78 22 0
-17 -47 -78 23 0
-17 -48 -78 23 0
-17 -49 -78 23 0
-17 -50 -78 23 0
-17 -46 -79 22 0
-17 -47 -79 23 0
-17 -48 -79 23 0
-17 -49 -79 23 0
-17 -50 -79 23 0
-17 -46 -80 22 0
-17 -47 -80 23 0
-17 -48 -80 23 0
-17 -49 -80 23 0
-17 -50 -80 23 0
-18 -46 -76 22 0
-18 -47 -76 22 0
-18 -48 -76 22 0
-18 -49 -76 22 0
-18 -50 -76 22 0
-18 -46 -77 22 0
-18 -47 -77 23 0
-18 -48 -77 23 0
-18 -49 -77 23 0
-18 -50 -77 23 0
-18 -46 -78 22 0
-18 -47 -78 23 0
-18 -48 -78 24 0
-18 -49 -78 24 0
-18 -50 -78 24 0
-18 -46 -79 22 0
-18 -47 -79 23 0
-18 -48 -79 24 0
-18 -49 -79 24 0
-18 -50 -79 24 0
-18 -46 -80 22 0
-18 -47 -80 23 0
-18 -48 -80 24 0
-18 -49 -80 24 0
-18 -50 -80 24 0
-19 -46 -76 22 0
-19 -47 -76 22 0
-19 -48 -76 22 0
-19 -49 -76 22 0
-19 -50 -76 22 0
-19 -46 -77 22 0
-19 -47 -77 23 0
-19 -48 -77 23 0
-19 -49 -77 23 0
-19 -50 -77 23 0
-19 -46 -78 22 0
-19 -47 -78 23 0
-19 -48 -78 24 0
-19 -49 -78 24 0
-19 -50 -78 24 0
-19 -46 -79 22 0
-19 -47 -79 23 0
-19 -48 -79 24 0
-19 -49 -79 25 0
-19 -50 -79 25 0
-19 -46 -80 22 0
-19 -47 -80 23 0
-19 -48 -80 24 0
-19 -49 -80 25 0
-19 -50 -80 25 0
-20 -46 -76 22 0
-20 -47 -76 22 0
-20 -48 -76 22 0
-20 -49 -76 22 0
-20 -50 -76 22 0
-20 -46 -77 22 0
-20 -47 -77 23 0
-20 -48 -77 23 0
-20 -49 -77 23 0
-20 -50 -77 23 0
-20 -46 -78 22 0
-20 -47 -78 23 0
-20 -48 -78 24 0
-20 -49 -78 24 0
-20 -50 -78 24 0
-20 -46 -79 22 0
-20 -47 -79 23 0
-20 -48 -79 24 0
-20 -49 -79 25 0
-20 -50 -79 25 0
-20 -46 -80 22 0
-20 -47 -80 23 0
-20 -48 -80 24 0
-20 -49 -80 25 0
-20 -50 -80 21 0
-46 -16 52 0
-46 -17 52 0
-46 -18 52 0
-46 -19 52 0
-46 -20 52 0
-47 -16 52 0
-47 -17 53 0
-47 -18 53 0
-47 -19 53 0
-47 -20 53 0
-48 -16 52 0
-48 -17 53 0
-48 -18 54 0
-48 -19 54 0
-48 -20 54 0
-49 -16 52 0
-49 -17 53 0
-49 -18 54 0
-49 -19 55 0
-49 -20 55 0
-50 -16 52 0
-50 -17 53 0
-50 -18 54 0
-50 -19 55 0
-50 -20 51 0
-76 -16 82 0
-76 -17 82 0
-76 -18 82 0
-76 -19 82 0
-76 -20 82 0
-77 -16 82 0
-77 -17 83 0
-77 -18 83 0
-77 -19 83 0
-77 -20 83 0
-78 -16 82 0
-78 -17 83 0
-78 -18 84 0
-78 -19 84 0
-78 -20 84 0
-79 -16 82 0
-79 -17 83 0
-79 -18 84 0
-79 -19 85 0
-79 -20 85 0
-80 -16 82 0
-80 -17 83 0
-80 -18 84 0
-80 -19 85 0
-80 -20 81 0
-21 -51 -81 27 0
-21 -52 -81 27 0
-21 -53 -81 27 0
-21 -54 -81 27 0
-21 -55 -81 27 0
-21 -51 -82 27 0
-21 -52 -82 27 0
-21 -53 -82 27 0
-21 -54 -82 27 0
-21 -55 -82 27 0
-21 -51 -83 27 0
-21 -52 -83 27 0
-21 -53 -83 27 0
-21 -54 -83 27 0
-21 -55 -83 27 0
-21 -51 -84 27 0
-21 -52 -84 27 0
-21 -53 -84 27 0
-21 -54 -84 27 0
-21 -55 -84 27 0
-21 -51 -85 27 0
-21 -52 -85 27 0
-21 -53 -85 27 0
-21 -54 -85 27 0
-21 -55 -85 27 0
-22 -51 -81 27 0
-22 -52 -81 27 0
-22 -53 -81 27 0
-22 -54 -81 27 0
-22 -55 -81 27 0
-22 -51 -82 27 0
-22 -52 -82 28 0
-22 -53 -82 28 0
-22 -54 -82 28 0
-22 -55 -82 28 0
-22 -51 -83 27 0
-22 -52 -83 28 0
-22 -53 -83 28 0
-22 -54 -83 28 0
-22 -55 -83 28 0
-22 -51 -84 27 0
-22 -52 -84 28 0
-22 -53 -84 28 0
-22 -54 -84 28 0
-22 -55 -84 28 0
-22 -51 -85 27 0
-22 -52 -85 28 0
-22 -53 -85 28 0
-22 -54 -85 28 0
-22 -55 -85 28 0
-23 -51 -81 27 0
-23 -52 -81 27 0
-23 -53 -81 27 0
-23 -54 -81 27 0
-23 -55 -81 27 0
-23 -51 -82 27 0
-23 -52 -82 28 0
-23 -53 -82 28 0
-23 -54 -82 28 0
-23 -55 -82 28 0
-23 -51 -83 27 0
-23 -52 -83 28 0
-23 -53 -83 29 0
-23 -54 -83 29 0
-23 -55 -83 29 0
-23 -51 -84 27 0
-23 -52 -84 28 0
-23 -53 -84 29 0
-23 -54 -84 29 0
-23 -55 -84 29 0
-23 -51 -85 27 0
-23 -52 -85 28 0
-23 -53 -85 29 0
-23 -54 -85 29 0
-23 -55 -85 29 0
-24 -51 -81 27 0
-24 -52 -81 27 0
-24 -53 -81 27 0
-24 -54 -81 27 0
-24 -55 -81 27 0
-24 -51 -82 27 0
-24 -52 -82 28 0
-24 -53 -82 28 0
-24 -54 -82 28 0
-24 -55 -82 28 0
-24 -51 -83 27 0
-24 -52 -83 28 0
-24 -53 -83 29 0
-24 -54 -83 29 0
-24 -55 -83 29 0
-24 -51 -84 27 0
-24 -52 -84 28 0
-24 -53 -84 29 0
-24 -54 -84 30 0
-24 -55 -84 30 0
-24 -51 -85 27 0
-24 -52 -85 28 0
-24 -53 -85 29 0
-24 -54 -85 30 0
-24 -55 -85 30 0
-25 -51 -81 27 0
-25 -52 -81 27 0
-25 -53 -81 27 0
-25 -54 -81 27 0
-25 -55 -81 27 0
-25 -51 -82 27 0
-25 -52 -82 28 0
-25 -53 -82 28 0
-25 -54 -82 28 0
-25 -55 -82 28 0
-25 -51 -83 27 0
-25 -52 -83 28 0
-25 -53 -83 29 0
-25 -54 -83 29 0
-25 -55 -83 29 0
-25 -51 -84 27 0
-25 -52 -84 28 0
-25 -53 -84 29 0
-25 -54 -84 30 0
-25 -55 -84 30 0
-25 -51 -85 27 0
-25 -52 -85 28 0
-25 -53 -85 29 0
-25 -54 -85 30 0
-25 -55 -85 26 0
-51 -21 57 0
-51 -22 57 0
-51 -23 57 0
-51 -24 57 0
-51 -25 57 0
-52 -21 57 0
-52 -22 58 0
-52 -23 58 0
-52 -24 58 0
-52 -25 58 0
-53 -21 57 0
-53 -22 58 0
-53 -23 59 0
-53 -24 59 0
-53 -25 59 0
-54 -21 57 0
-54 -22 58 0
-54 -23 59 0
-54 -24 60 0
-54 -25 60 0
-55 -21 57 0
-55 -22 58 0
-55 -23 59 0
-55 -24 60 0
-55 -25 56 0
-81 -21 87 0
-81 -22 87 0
-81 -23 87 0
-81 -24 87 0
-81 -25 87 0
-82 -21 87 0
-82 -22 88 0
-82 -23 88 0
-82 -24 88 0
-82 -25 88 0
-83 -21 87 0
-83 -22 88 0
-83 -23 89 0
-83 -24 89 0
-83 -25 89 0
-84 -21 87 0
-84 -22 88 0
-84 -23 89 0
-84 -24 90 0
-84 -25 90 0
-85 -21 87 0
-85 -22 88 0
-85 -23 89 0
-85 -24 90 0
-85 -25 86 0
-26 -56 -86 0
-27 -57 -87 0
-28 -58 -88 0
-29 -59 -89 0
-30 -60 -90 0
-31 -62 0
-31 -63 0
-31 -64 0
-31 -65 0
-32 -63 0
-32 -64 0
-32 -65 0
-33 -64 0
-33 -65 0
-34 -65 0
